
Gurobi 6.5.2 (win64) logging started 07/22/16 21:44:18


Gurobi 6.5.2 (win64) logging started 07/22/16 21:44:18

Optimize a model with 2842 rows, 761 columns and 7333 nonzeros
Coefficient statistics:
  Matrix range    [6e-08, 4e+02]
  Objective range [1e+00, 1e+00]
  Bounds range    [1e+00, 1e+00]
  RHS range       [6e-06, 1e+03]
Presolve removed 2188 rows and 92 columns
Presolve time: 0.02s
Presolved: 654 rows, 669 columns, 3100 nonzeros
Variable types: 288 continuous, 381 integer (381 binary)

Root relaxation: objective 1.676250e+02, 1671 iterations, 0.11 seconds

    Nodes    |    Current Node    |     Objective Bounds      |     Work
 Expl Unexpl |  Obj  Depth IntInf | Incumbent    BestBd   Gap | It/Node Time

     0     0  167.62497    0  136          -  167.62497      -     -    0s
     0     0  169.86575    0  137          -  169.86575      -     -    0s
     0     0  170.17975    0  120          -  170.17975      -     -    0s
H    0     0                     176.8430037  170.17975  3.77%     -    0s
H    0     0                     176.8172222  170.17975  3.75%     -    0s
     0     0  170.29989    0  136  176.81722  170.29989  3.69%     -    0s
     0     0  170.33654    0  136  176.81722  170.33654  3.67%     -    0s
H    0     0                     176.7276355  170.33654  3.62%     -    0s
     0     0  170.39245    0  137  176.72764  170.39245  3.58%     -    0s
     0     0  170.39274    0  135  176.72764  170.39274  3.58%     -    0s
     0     0  170.47093    0  137  176.72764  170.47093  3.54%     -    0s
     0     0  170.47180    0  140  176.72764  170.47180  3.54%     -    0s
H    0     0                     176.6194823  170.47180  3.48%     -    0s
     0     0  170.51685    0  140  176.61948  170.51685  3.46%     -    0s
     0     0  170.52365    0  139  176.61948  170.52365  3.45%     -    0s
     0     0  170.55028    0  138  176.61948  170.55028  3.44%     -    0s
     0     0  170.55922    0  135  176.61948  170.55922  3.43%     -    0s
     0     0  170.56334    0  138  176.61948  170.56334  3.43%     -    0s
     0     0  170.56334    0  135  176.61948  170.56334  3.43%     -    0s
     0     0  170.56334    0  103  176.61948  170.56334  3.43%     -    0s
     0     0  170.94632    0  117  176.61948  170.94632  3.21%     -    0s
H    0     0                     176.4791833  170.94632  3.14%     -    0s
     0     0  170.99985    0  120  176.47918  170.99985  3.10%     -    0s
H    0     0                     175.8551405  170.99985  2.76%     -    0s
     0     0  171.06622    0  114  175.85514  171.06622  2.72%     -    0s
     0     0  171.06657    0  114  175.85514  171.06657  2.72%     -    0s
     0     0  171.06663    0  114  175.85514  171.06663  2.72%     -    0s
     0     0  171.06663    0  110  175.85514  171.06663  2.72%     -    0s
     0     2  171.06663    0  110  175.85514  171.06663  2.72%     -    0s
H  104    98                     175.4171797  171.80798  2.06%  20.9    0s
*  182   155              40     175.2441027  172.00028  1.85%  16.0    0s
H  250   180                     174.8926878  172.00028  1.65%  15.0    0s
*  323   221              37     174.8561725  172.00028  1.63%  13.6    0s
H 2466   942                     174.8232588  172.78322  1.17%  16.3    2s
H 2474   913                     174.8178926  172.78322  1.16%  16.3    2s
 14558  5800  173.90555   21   65  174.81789  173.65373  0.67%  13.4    5s
 35139  9818     cutoff   26       174.81789  174.04578  0.44%  12.3   10s
 58204  9053  174.76338   27   60  174.81789  174.38244  0.25%  12.8   15s
 87085    98     cutoff   28       174.81789  174.79284  0.01%  11.8   20s

Cutting planes:
  Gomory: 13
  MIR: 48
  Flow cover: 23

Explored 87264 nodes (1028561 simplex iterations) in 20.02 seconds
Thread count was 8 (of 8 available processors)

Optimal solution found (tolerance 1.00e-04)
Best objective 1.748178925513e+02, best bound 1.748077061932e+02, gap 0.0058%

Wrote requested result file 'H1\instance19\\Results19E_Sol6.lp'

